
n_res = 8;
rcap = [91, 87, 82, 91, 716, 848, 727, 723];
rtype = [1, 1, 1, 1, 2, 2, 2, 2];
n_tasks = 50;
modes =  [{1, 2, 3, 4, 5, 6}, {7, 8, 9, 10, 11, 12}, {13, 14, 15, 16, 17, 18}, {19, 20, 21, 22, 23, 24}, {25, 26, 27, 28, 29, 30}, {31, 32, 33, 34, 35, 36}, {37, 38, 39, 40, 41, 42}, {43, 44, 45, 46, 47, 48}, {49, 50, 51, 52, 53, 54}, {55, 56, 57, 58, 59, 60}, {61, 62, 63, 64, 65, 66}, {67, 68, 69, 70, 71, 72}, {73, 74, 75, 76, 77, 78}, {79, 80, 81, 82, 83, 84}, {85, 86, 87, 88, 89, 90}, {91, 92, 93, 94, 95, 96}, {97, 98, 99, 100, 101, 102}, {103, 104, 105, 106, 107, 108}, {109, 110, 111, 112, 113, 114}, {115, 116, 117, 118, 119, 120}, {121, 122, 123, 124, 125, 126}, {127, 128, 129, 130, 131, 132}, {133, 134, 135, 136, 137, 138}, {139, 140, 141, 142, 143, 144}, {145, 146, 147, 148, 149, 150}, {151, 152, 153, 154, 155, 156}, {157, 158, 159, 160, 161, 162}, {163, 164, 165, 166, 167, 168}, {169, 170, 171, 172, 173, 174}, {175, 176, 177, 178, 179, 180}, {181, 182, 183, 184, 185, 186}, {187, 188, 189, 190, 191, 192}, {193, 194, 195, 196, 197, 198}, {199, 200, 201, 202, 203, 204}, {205, 206, 207, 208, 209, 210}, {211, 212, 213, 214, 215, 216}, {217, 218, 219, 220, 221, 222}, {223, 224, 225, 226, 227, 228}, {229, 230, 231, 232, 233, 234}, {235, 236, 237, 238, 239, 240}, {241, 242, 243, 244, 245, 246}, {247, 248, 249, 250, 251, 252}, {253, 254, 255, 256, 257, 258}, {259, 260, 261, 262, 263, 264}, {265, 266, 267, 268, 269, 270}, {271, 272, 273, 274, 275, 276}, {277, 278, 279, 280, 281, 282}, {283, 284, 285, 286, 287, 288}, {289, 290, 291, 292, 293, 294}, {295, 296, 297, 298, 299, 300}];
succ =  [{26, 25, 21, 20, 16, 13, 10}, {29, 27, 25, 22, 21, 16}, {27, 26, 18, 10}, {38, 26, 25, 22, 21, 16}, {38, 29, 26, 25, 21, 16}, {32, 29, 25, 21, 20, 19}, {35, 29, 27, 25, 19, 15}, {38, 35, 32, 31, 26, 25, 19}, {46, 35, 32, 30, 29, 28, 27, 23}, {38, 35, 32, 31, 19}, {50, 49, 35, 31, 28, 26, 25, 23}, {50, 49, 35, 32, 31, 28, 26, 23}, {50, 49, 48, 46, 38, 34, 33, 32, 30, 29, 28}, {50, 49, 48, 33, 32, 31, 30, 28, 25}, {50, 49, 38, 28, 26, 23}, {32, 19}, {50, 49, 47, 46, 32, 31, 30, 23}, {38, 35, 31, 29, 25, 23}, {50, 49, 46, 30, 28, 23}, {50, 49, 47, 46, 38, 23}, {49, 48, 46, 37, 35, 34, 31, 28}, {49, 47, 46, 30, 23}, {48, 45, 44, 43, 41, 36, 34, 33}, {46, 44, 36, 35, 32, 30}, {47, 46, 45, 44, 43, 41, 36, 34}, {46, 45, 44, 36, 34, 30}, {49, 48, 47, 44, 38, 31}, {47, 45, 44, 43, 41, 39, 36}, {41, 40, 37, 36}, {43, 42, 41, 40}, {42, 41, 40, 39}, {43, 41, 39}, {40, 37}, {40, 39}, {45, 39}, {42}, {39}, {40}, {}, {}, {}, {}, {}, {}, {}, {}, {}, {}, {}, {}];
n_opt = 300;
dur = [4, 12, 13, 18, 20, 22, 2, 3, 8, 15, 16, 17, 4, 11, 14, 15, 20, 23, 8, 10, 11, 14, 25, 30, 5, 17, 18, 20, 21, 26, 3, 11, 13, 20, 22, 28, 15, 21, 22, 27, 28, 29, 10, 11, 12, 23, 24, 28, 1, 3, 8, 13, 15, 28, 8, 9, 16, 22, 23, 25, 12, 14, 19, 20, 22, 28, 2, 7, 8, 9, 12, 24, 1, 3, 8, 17, 27, 29, 1, 2, 3, 8, 21, 25, 14, 18, 21, 22, 28, 29, 6, 10, 13, 15, 17, 25, 1, 4, 5, 16, 24, 29, 1, 3, 4, 14, 15, 16, 2, 3, 9, 22, 23, 25, 1, 7, 10, 12, 21, 27, 7, 8, 9, 10, 13, 16, 12, 15, 16, 21, 22, 25, 11, 12, 16, 24, 26, 28, 4, 8, 10, 11, 27, 30, 3, 10, 19, 23, 25, 26, 9, 20, 25, 26, 27, 28, 1, 2, 4, 16, 22, 29, 5, 8, 12, 14, 24, 26, 12, 15, 19, 21, 26, 30, 7, 15, 20, 21, 22, 29, 4, 9, 13, 21, 28, 29, 6, 9, 16, 19, 22, 23, 3, 17, 18, 22, 24, 27, 11, 12, 14, 19, 21, 28, 4, 11, 13, 19, 28, 29, 3, 4, 17, 20, 25, 26, 16, 21, 24, 26, 27, 29, 1, 2, 10, 19, 26, 28, 7, 8, 18, 19, 20, 27, 1, 6, 9, 19, 22, 29, 4, 6, 16, 24, 25, 30, 3, 10, 11, 13, 18, 22, 11, 12, 23, 25, 27, 29, 10, 11, 22, 23, 25, 29, 12, 13, 22, 24, 27, 28, 1, 7, 8, 20, 22, 25, 1, 5, 6, 14, 24, 30, 4, 7, 8, 16, 19, 26, 12, 14, 16, 17, 19, 26, 11, 18, 20, 22, 26, 28];
rreq = [|18, 15, 13, 10, 9, 8, 27, 27, 27, 26, 26, 26, 25, 24, 22, 21, 20, 20, 13, 10, 8, 7, 3, 3, 24, 23, 21, 21, 19, 19, 24, 21, 18, 16, 13, 12, 23, 23, 22, 20, 20, 18, 24, 21, 18, 17, 15, 11, 19, 17, 16, 14, 10, 9, 6, 5, 5, 4, 4, 3, 22, 21, 16, 14, 12, 9, 10, 8, 8, 7, 5, 5, 7, 6, 5, 5, 4, 3, 8, 7, 7, 7, 6, 6, 24, 23, 22, 22, 21, 20, 13, 11, 10, 9, 9, 7, 17, 16, 15, 15, 13, 13, 7, 7, 6, 5, 3, 3, 29, 28, 27, 27, 26, 25, 20, 17, 15, 13, 12, 11, 22, 20, 16, 15, 10, 10, 19, 17, 13, 10, 9, 5, 18, 16, 14, 12, 9, 3, 26, 20, 17, 12, 7, 3, 29, 23, 21, 18, 17, 14, 29, 27, 26, 24, 23, 20, 23, 21, 21, 19, 18, 16, 23, 22, 20, 18, 15, 14, 27, 19, 18, 14, 7, 4, 24, 23, 23, 22, 19, 18, 20, 14, 14, 10, 6, 2, 28, 22, 19, 17, 14, 8, 28, 23, 17, 13, 7, 5, 6, 6, 6, 6, 5, 5, 18, 16, 14, 12, 7, 5, 20, 20, 15, 13, 13, 10, 18, 15, 14, 11, 9, 8, 15, 15, 12, 11, 9, 5, 29, 20, 16, 12, 7, 4, 18, 17, 16, 15, 14, 13, 25, 22, 21, 17, 16, 10, 21, 20, 20, 18, 17, 16, 16, 15, 11, 8, 4, 3, 25, 25, 24, 23, 23, 22, 22, 22, 21, 20, 20, 19, 29, 27, 25, 23, 20, 19, 25, 21, 20, 18, 16, 14, 22, 18, 12, 12, 5, 5, 18, 16, 13, 11, 10, 7, 5, 5, 5, 5, 4, 4
 |17, 14, 10, 9, 7, 5, 26, 23, 16, 15, 11, 6, 11, 9, 9, 7, 6, 5, 7, 7, 7, 6, 6, 6, 28, 24, 22, 20, 20, 18, 8, 7, 7, 7, 7, 7, 9, 9, 7, 6, 5, 3, 20, 20, 19, 17, 15, 15, 9, 7, 6, 5, 3, 2, 26, 25, 24, 23, 22, 20, 28, 27, 24, 22, 21, 19, 25, 24, 23, 21, 21, 19, 26, 26, 22, 22, 17, 16, 18, 15, 14, 13, 8, 7, 20, 16, 16, 12, 7, 6, 17, 17, 13, 11, 10, 9, 26, 22, 19, 16, 13, 10, 23, 23, 23, 23, 23, 23, 20, 17, 14, 8, 6, 5, 16, 13, 13, 11, 10, 9, 30, 28, 28, 26, 26, 25, 29, 25, 20, 18, 12, 9, 9, 8, 8, 7, 7, 7, 27, 22, 22, 19, 15, 13, 17, 13, 12, 10, 8, 7, 23, 22, 18, 13, 11, 9, 9, 7, 7, 4, 4, 1, 24, 23, 21, 20, 20, 19, 26, 26, 22, 17, 15, 9, 23, 23, 17, 16, 13, 9, 23, 19, 15, 11, 9, 4, 26, 26, 26, 26, 26, 26, 21, 16, 12, 11, 7, 5, 20, 17, 16, 10, 6, 3, 22, 21, 19, 19, 17, 17, 12, 10, 9, 6, 5, 3, 21, 17, 13, 9, 6, 3, 22, 18, 17, 14, 13, 11, 30, 29, 28, 26, 25, 25, 17, 17, 16, 16, 16, 15, 13, 10, 9, 5, 3, 3, 25, 19, 18, 13, 8, 7, 18, 14, 11, 7, 7, 4, 15, 15, 15, 15, 15, 15, 8, 7, 7, 6, 6, 6, 16, 15, 12, 10, 10, 7, 22, 21, 20, 19, 19, 18, 9, 8, 7, 6, 4, 3, 19, 16, 14, 10, 9, 5, 5, 5, 4, 3, 1, 1
 |10, 9, 8, 8, 7, 6, 18, 15, 14, 13, 12, 11, 14, 10, 8, 5, 5, 1, 3, 2, 2, 2, 1, 1, 22, 22, 21, 21, 20, 19, 12, 9, 7, 7, 6, 3, 20, 17, 15, 13, 13, 11, 15, 12, 9, 7, 6, 3, 21, 21, 21, 20, 20, 19, 12, 10, 10, 7, 5, 5, 16, 16, 15, 13, 12, 11, 28, 27, 27, 26, 26, 26, 23, 19, 14, 11, 10, 6, 23, 21, 19, 17, 16, 15, 16, 16, 16, 15, 15, 15, 23, 21, 20, 19, 18, 18, 24, 23, 20, 18, 16, 11, 21, 18, 14, 14, 9, 6, 12, 10, 9, 6, 4, 3, 20, 20, 20, 20, 20, 20, 23, 23, 23, 22, 21, 21, 15, 13, 11, 8, 8, 6, 12, 11, 9, 8, 4, 3, 13, 11, 8, 6, 4, 2, 21, 19, 15, 13, 10, 10, 16, 15, 13, 13, 11, 11, 2, 2, 2, 2, 2, 2, 23, 18, 17, 13, 12, 11, 25, 23, 20, 18, 15, 15, 27, 25, 23, 20, 18, 17, 25, 23, 22, 19, 12, 12, 25, 23, 21, 18, 16, 13, 26, 22, 15, 14, 9, 7, 29, 28, 25, 22, 20, 19, 19, 18, 14, 10, 4, 3, 26, 26, 22, 20, 17, 17, 20, 19, 17, 15, 13, 12, 24, 24, 24, 23, 23, 23, 27, 20, 18, 13, 9, 4, 30, 26, 26, 24, 21, 19, 7, 6, 6, 5, 5, 5, 18, 18, 15, 12, 8, 4, 21, 21, 19, 18, 17, 16, 19, 18, 12, 9, 8, 3, 13, 13, 13, 12, 12, 12, 22, 18, 15, 14, 13, 9, 23, 22, 21, 20, 17, 16, 5, 4, 3, 3, 1, 1, 26, 24, 24, 24, 23, 22, 12, 11, 10, 10, 10, 9
 |26, 22, 20, 19, 18, 14, 16, 13, 11, 7, 7, 2, 15, 13, 10, 9, 5, 3, 27, 23, 19, 12, 9, 6, 16, 16, 16, 16, 16, 16, 21, 21, 20, 19, 19, 18, 13, 12, 11, 10, 8, 7, 13, 12, 11, 9, 9, 8, 22, 19, 17, 13, 10, 8, 23, 23, 19, 16, 13, 10, 17, 14, 12, 12, 6, 6, 22, 21, 21, 21, 20, 20, 24, 19, 17, 12, 10, 5, 27, 24, 22, 22, 21, 18, 14, 14, 14, 14, 13, 13, 18, 15, 14, 11, 11, 9, 23, 19, 17, 13, 11, 8, 21, 18, 16, 15, 14, 11, 28, 27, 25, 24, 23, 23, 24, 21, 16, 13, 10, 7, 22, 21, 15, 12, 12, 9, 27, 22, 19, 16, 14, 13, 6, 5, 5, 4, 3, 3, 16, 11, 9, 8, 4, 1, 18, 14, 12, 10, 9, 6, 10, 9, 8, 7, 6, 5, 16, 16, 16, 16, 16, 16, 5, 3, 3, 3, 1, 1, 22, 21, 19, 19, 17, 15, 26, 25, 25, 24, 24, 23, 11, 11, 9, 5, 4, 1, 18, 16, 13, 9, 8, 5, 25, 24, 24, 23, 22, 20, 24, 21, 16, 14, 8, 6, 25, 24, 24, 24, 24, 24, 15, 11, 9, 7, 6, 3, 22, 19, 14, 14, 10, 7, 30, 25, 17, 14, 11, 5, 20, 16, 12, 8, 5, 3, 29, 23, 22, 18, 15, 9, 30, 29, 28, 27, 26, 25, 25, 25, 24, 21, 20, 19, 27, 26, 24, 24, 22, 21, 21, 19, 19, 18, 16, 16, 9, 9, 7, 7, 6, 5, 3, 3, 3, 3, 3, 3, 25, 25, 25, 24, 24, 24, 27, 24, 18, 17, 10, 9, 30, 27, 26, 25, 25, 24, 25, 24, 23, 22, 22, 21
 |26, 17, 14, 11, 9, 2, 16, 16, 13, 11, 8, 6, 27, 27, 25, 24, 22, 21, 24, 20, 18, 15, 13, 10, 21, 20, 12, 9, 5, 2, 29, 28, 28, 28, 27, 27, 12, 12, 10, 8, 8, 6, 19, 16, 11, 10, 5, 5, 10, 10, 10, 10, 9, 9, 25, 24, 21, 19, 19, 16, 15, 14, 11, 8, 5, 2, 29, 26, 24, 21, 19, 18, 9, 9, 7, 5, 3, 2, 27, 27, 24, 21, 18, 16, 9, 8, 7, 6, 6, 4, 8, 7, 7, 6, 6, 5, 24, 24, 24, 24, 24, 24, 21, 17, 17, 15, 12, 10, 21, 15, 12, 10, 4, 4, 7, 5, 4, 3, 2, 1, 28, 26, 21, 20, 18, 14, 27, 25, 22, 16, 15, 10, 8, 8, 7, 5, 5, 4, 2, 2, 2, 2, 1, 1, 30, 27, 23, 21, 15, 15, 20, 14, 13, 11, 6, 4, 17, 16, 14, 13, 11, 8, 27, 24, 23, 20, 18, 16, 21, 20, 18, 18, 16, 16, 24, 24, 24, 24, 24, 24, 12, 10, 9, 6, 5, 3, 28, 25, 19, 14, 11, 5, 20, 18, 18, 17, 15, 13, 23, 22, 21, 21, 20, 20, 8, 6, 6, 5, 3, 3, 16, 13, 13, 8, 8, 4, 12, 11, 10, 10, 9, 7, 16, 14, 13, 11, 11, 9, 26, 26, 25, 25, 23, 23, 16, 16, 14, 10, 9, 8, 23, 20, 15, 13, 5, 5, 17, 15, 15, 14, 14, 13, 9, 8, 7, 5, 5, 4, 26, 23, 20, 18, 14, 10, 23, 17, 15, 9, 6, 3, 25, 25, 25, 25, 25, 25, 12, 12, 12, 12, 12, 12, 27, 24, 21, 19, 15, 13, 9, 9, 9, 9, 8, 8, 6, 5, 5, 5, 5, 5
 |21, 21, 20, 19, 18, 18, 12, 11, 11, 10, 10, 9, 23, 21, 18, 16, 15, 13, 29, 22, 17, 14, 11, 5, 14, 13, 10, 9, 6, 4, 26, 25, 25, 24, 24, 24, 30, 30, 30, 30, 30, 30, 25, 18, 15, 13, 5, 1, 28, 23, 20, 16, 8, 4, 27, 25, 19, 11, 8, 1, 26, 21, 17, 15, 11, 8, 26, 25, 24, 24, 23, 23, 21, 21, 18, 14, 12, 7, 27, 24, 22, 20, 17, 14, 29, 27, 24, 19, 17, 15, 28, 24, 23, 21, 19, 17, 27, 24, 23, 19, 19, 17, 21, 19, 19, 17, 16, 15, 17, 16, 16, 16, 15, 15, 16, 15, 13, 13, 11, 9, 15, 13, 13, 13, 12, 11, 16, 16, 15, 14, 13, 11, 11, 10, 9, 7, 7, 6, 19, 17, 15, 14, 10, 9, 24, 22, 19, 17, 15, 15, 10, 7, 5, 5, 3, 2, 15, 15, 15, 15, 15, 15, 15, 15, 10, 10, 5, 2, 19, 18, 18, 18, 18, 18, 13, 11, 10, 10, 8, 7, 30, 29, 29, 28, 27, 27, 26, 23, 23, 22, 20, 19, 26, 25, 24, 19, 16, 16, 18, 13, 10, 10, 6, 3, 21, 18, 18, 16, 10, 8, 16, 16, 16, 15, 15, 15, 15, 14, 14, 14, 13, 12, 27, 24, 23, 21, 21, 19, 21, 19, 18, 18, 17, 15, 26, 22, 21, 18, 13, 13, 16, 13, 13, 10, 10, 8, 26, 25, 25, 24, 24, 23, 23, 18, 16, 12, 7, 4, 20, 16, 14, 12, 10, 8, 27, 22, 16, 14, 8, 2, 24, 21, 20, 16, 14, 12, 23, 21, 21, 20, 19, 19, 21, 20, 20, 19, 19, 18, 14, 12, 10, 8, 5, 4, 29, 29, 29, 28, 28, 28
 |14, 14, 13, 12, 11, 9, 23, 21, 19, 14, 10, 10, 23, 19, 14, 13, 10, 8, 30, 25, 18, 16, 10, 10, 29, 27, 27, 26, 25, 25, 24, 24, 23, 22, 20, 18, 22, 21, 20, 20, 18, 18, 29, 29, 29, 29, 29, 29, 19, 19, 18, 16, 15, 15, 11, 10, 9, 9, 9, 8, 23, 18, 14, 11, 9, 7, 27, 27, 24, 23, 21, 17, 22, 22, 21, 20, 18, 18, 23, 21, 20, 19, 18, 18, 16, 14, 12, 11, 8, 7, 9, 9, 8, 8, 6, 6, 18, 16, 12, 12, 10, 8, 24, 21, 21, 16, 15, 13, 12, 11, 10, 9, 8, 7, 19, 18, 13, 12, 7, 7, 17, 15, 13, 12, 11, 8, 5, 4, 4, 4, 3, 3, 24, 23, 20, 18, 12, 10, 9, 7, 7, 6, 4, 3, 18, 16, 14, 14, 12, 11, 23, 16, 12, 9, 5, 4, 17, 14, 12, 12, 8, 7, 10, 9, 9, 7, 4, 3, 21, 20, 20, 19, 18, 17, 12, 10, 9, 9, 7, 5, 13, 11, 8, 8, 7, 5, 21, 20, 16, 12, 10, 4, 16, 13, 10, 7, 6, 5, 7, 7, 5, 4, 4, 3, 20, 18, 13, 12, 9, 5, 17, 15, 15, 13, 13, 11, 14, 13, 11, 7, 5, 5, 9, 9, 9, 9, 9, 9, 24, 21, 18, 18, 15, 13, 29, 26, 23, 22, 19, 15, 7, 5, 5, 4, 2, 2, 11, 10, 8, 7, 7, 5, 29, 27, 26, 25, 25, 23, 16, 15, 15, 15, 13, 13, 20, 20, 20, 20, 19, 19, 5, 4, 4, 4, 3, 2, 27, 26, 26, 24, 24, 23, 21, 15, 11, 11, 7, 1, 29, 26, 24, 21, 18, 16, 26, 24, 23, 21, 16, 13
 |11, 10, 9, 8, 7, 6, 26, 25, 21, 18, 18, 14, 27, 26, 25, 24, 24, 23, 5, 4, 4, 3, 3, 2, 24, 21, 20, 19, 18, 17, 25, 25, 24, 23, 22, 22, 20, 19, 16, 14, 12, 12, 19, 18, 16, 16, 14, 13, 1, 1, 1, 1, 1, 1, 26, 22, 18, 16, 15, 13, 16, 14, 10, 8, 8, 5, 11, 9, 8, 7, 4, 4, 2, 2, 2, 2, 2, 2, 14, 14, 14, 14, 13, 13, 16, 16, 14, 13, 12, 11, 21, 18, 16, 11, 6, 5, 20, 17, 15, 14, 13, 9, 23, 19, 17, 12, 9, 7, 18, 17, 16, 16, 15, 14, 23, 20, 18, 15, 11, 9, 27, 25, 24, 21, 18, 17, 25, 19, 17, 14, 6, 4, 29, 25, 24, 20, 18, 18, 10, 9, 9, 9, 9, 9, 20, 17, 17, 15, 15, 14, 24, 17, 14, 9, 5, 3, 24, 21, 20, 19, 18, 18, 16, 16, 15, 15, 15, 14, 20, 15, 14, 10, 6, 5, 16, 15, 13, 11, 6, 5, 23, 17, 17, 9, 7, 4, 22, 19, 18, 16, 14, 13, 28, 25, 20, 15, 10, 9, 28, 26, 26, 26, 24, 24, 16, 15, 13, 10, 6, 3, 10, 9, 8, 8, 6, 6, 17, 15, 12, 11, 7, 7, 19, 16, 15, 15, 13, 13, 8, 8, 8, 8, 8, 8, 21, 17, 16, 10, 5, 3, 27, 20, 17, 12, 11, 6, 26, 25, 25, 24, 22, 21, 8, 7, 7, 6, 6, 6, 15, 14, 12, 11, 10, 10, 19, 16, 14, 12, 10, 5, 2, 1, 1, 1, 1, 1, 30, 29, 27, 26, 26, 25, 24, 23, 22, 21, 20, 18, 17, 15, 13, 9, 7, 4, 26, 19, 18, 13, 11, 6|];